64781.5
76 89 63 48 26 1 80 97 47 77 82 20 41 36 68 19 2 37 67 86 12 30 14 6 31 62 73 8 99 87 34 0 15 79 40 88 81 27 98 96 66 43 29 60 59 22 91 56 44 35 17 9 54 33 5 58 32 72 7 61 46 90 23 38 92 95 28 25 4 52 21 42 51 55 49 45 83 11 39 57 70 75 50 69 71 85 3 94 24 65 18 74 53 10 64 78 13 16 93 84 
